experiments/eusolverbv/3/DirectTrainGenes/111000111000011111100110110111111101110001111/111_.sl

(set-logic BV)

(define-fun shr1 ((x (BitVec 64))) (BitVec 64) (bvlshr x #x0000000000000001))
(define-fun shr4 ((x (BitVec 64))) (BitVec 64) (bvlshr x #x0000000000000004))
(define-fun shr16 ((x (BitVec 64))) (BitVec 64) (bvlshr x #x0000000000000010))
(define-fun shl1 ((x (BitVec 64))) (BitVec 64) (bvshl x #x0000000000000001))
(define-fun if0 ((x (BitVec 64)) (y (BitVec 64)) (z (BitVec 64))) (BitVec 64) (ite (= x #x0000000000000001) y z))
(define-fun func24  ((A (BitVec 64)) (B (BitVec 64)) (C (BitVec 64)) (D (BitVec 64)) ) (BitVec 64) (bvand (bvlshr (bvlshr C  D ) B ) A ))
(define-fun func25  ((A (BitVec 64)) (B (BitVec 64)) (C (BitVec 64)) ) (BitVec 64) (bvand (bvlshr (bvlshr B  C ) A ) #x0000000000000004 ))
(define-fun func26  ((A (BitVec 64)) (B (BitVec 64)) (C (BitVec 64)) ) (BitVec 64) (bvand (bvlshr (bvlshr B  C ) #x0000000000000004 ) A ))
(define-fun func27  ((A (BitVec 64)) (B (BitVec 64)) (C (BitVec 64)) ) (BitVec 64) (bvand (bvlshr B  C ) A ))
(define-fun func28  ((A (BitVec 64)) (B (BitVec 64)) ) (BitVec 64) (bvand (bvlshr B  #x0000000000000010 ) A ))
(define-fun func29  ((A (BitVec 64)) (B (BitVec 64)) ) (BitVec 64) (bvand (bvlshr B  #x0000000000000001 ) A ))
(define-fun func30  ((A (BitVec 64)) (B (BitVec 64)) ) (BitVec 64) (bvand (bvlshr B  #x0000000000000004 ) A ))
(define-fun func31  ((A (BitVec 64)) (B (BitVec 64)) ) (BitVec 64) (bvand (bvlshr A  B ) #x0000000000000001 ))
(define-fun func32  ((A (BitVec 64)) ) (BitVec 64) (bvand A  #x0000000000000001 ))
(define-fun func33  ((A (BitVec 64)) (B (BitVec 64)) (C (BitVec 64)) (D (BitVec 64)) ) (BitVec 64) (bvlshr (bvlshr (bvlshr C  D ) B ) A ))
(define-fun func34  ((A (BitVec 64)) (B (BitVec 64)) (C (BitVec 64)) ) (BitVec 64) (bvlshr (bvlshr (bvlshr C  #x0000000000000010 ) B ) A ))
(define-fun func35  ((A (BitVec 64)) (B (BitVec 64)) (C (BitVec 64)) ) (BitVec 64) (bvlshr (bvlshr B  C ) A ))
(define-fun func36  ((A (BitVec 64)) (B (BitVec 64)) ) (BitVec 64) (bvlshr (bvlshr B  #x0000000000000010 ) A ))
(define-fun func37  ((A (BitVec 64)) (B (BitVec 64)) ) (BitVec 64) (bvlshr (bvlshr B  #x0000000000000004 ) A ))
(define-fun func38  ((A (BitVec 64)) (B (BitVec 64)) ) (BitVec 64) (bvlshr (bvlshr B  #x0000000000000001 ) A ))
(define-fun func39  ((A (BitVec 64)) (B (BitVec 64)) ) (BitVec 64) (bvlshr (bvlshr A  B ) #x0000000000000001 ))
(define-fun func40  ((A (BitVec 64)) (B (BitVec 64)) ) (BitVec 64) (bvlshr (bvlshr A  B ) #x0000000000000004 ))
(define-fun func41  ((A (BitVec 64)) (B (BitVec 64)) ) (BitVec 64) (bvlshr A  B ))
(define-fun func42  ((A (BitVec 64)) (B (BitVec 64)) (C (BitVec 64)) ) (BitVec 64) (bvlshr (bvshl B  C ) A ))
(define-fun func43  ((A (BitVec 64)) (B (BitVec 64)) ) (BitVec 64) (bvlshr (bvshl B  #x0000000000000001 ) A ))
(define-fun func44  ((A (BitVec 64)) (B (BitVec 64)) ) (BitVec 64) (bvlshr (bvnot B ) A ))
(define-fun func45  ((A (BitVec 64)) ) (BitVec 64) (bvlshr (bvnot A ) #x0000000000000010 ))
(define-fun func46  ((A (BitVec 64)) (B (BitVec 64)) (C (BitVec 64)) ) (BitVec 64) (bvlshr (bvadd B  C ) A ))
(define-fun func47  ((A (BitVec 64)) (B (BitVec 64)) (C (BitVec 64)) ) (BitVec 64) (bvshl (bvlshr B  C ) A ))
(define-fun func48  ((A (BitVec 64)) (B (BitVec 64)) ) (BitVec 64) (bvshl (bvlshr B  #x0000000000000001 ) A ))
(define-fun func49  ((A (BitVec 64)) (B (BitVec 64)) ) (BitVec 64) (bvshl (bvlshr A  B ) #x0000000000000001 ))
(define-fun func51  ((A (BitVec 64)) (B (BitVec 64)) ) (BitVec 64) (bvshl (bvnot B ) A ))
(define-fun func52  ((A (BitVec 64)) ) (BitVec 64) (bvshl (bvnot A ) #x0000000000000001 ))
(define-fun func53  ((A (BitVec 64)) ) (BitVec 64) (bvnot (bvshl A  #x0000000000000001 )))
(define-fun func55  ((A (BitVec 64)) (B (BitVec 64)) (C (BitVec 64)) ) (BitVec 64) (bvadd (bvlshr B  C ) A ))
(define-fun func56  ((A (BitVec 64)) ) (BitVec 64) (bvadd A  #x0000000000000001 ))
(define-fun func57  ((A (BitVec 64)) (B (BitVec 64)) (C (BitVec 64)) ) (BitVec 64) (bvadd (bvshl B  C ) A ))
(define-fun func58  ((A (BitVec 64)) (B (BitVec 64)) ) (BitVec 64) (bvadd (bvshl B  #x0000000000000001 ) A ))
(define-fun func59  ((A (BitVec 64)) (B (BitVec 64)) (C (BitVec 64)) ) (BitVec 64) (bvor (bvlshr B  C ) A ))
(define-fun func60  ((A (BitVec 64)) ) (BitVec 64) (bvor A  #x0000000000000001 ))
(synth-fun f ( (x (BitVec 64))) (BitVec 64)
(
(Start (BitVec 64) (
   #x0000000000000000
   #x0000000000000001
   x
   (func24 Start Start Start Start)
   (func25 Start Start Start)
   (func26 Start Start Start)
   (func30 Start Start)
   (func31 Start Start)
   (func32 Start)
   (func37 Start Start)
   (func38 Start Start)
   (func39 Start Start)
   (func40 Start Start)
   (func41 Start Start)
   (func42 Start Start Start)
   (func45 Start)
   (func46 Start Start Start)
   (func48 Start Start)
   (func49 Start Start)
   (func52 Start)
   (func53 Start)
   (func55 Start Start Start)
   (func56 Start)
   (func57 Start Start Start)
   (func58 Start Start)
   (func59 Start Start Start)
   (shr4 Start)
   (shr16 Start)
   (bvand Start Start)
   (if0 Start Start Start)
))
))
(constraint (= (f #x42d0503b439f17df) #xbd2fafc4bc60e820))
(constraint (= (f #x85e6de8110e8866b) #x7a19217eef177994))
(constraint (= (f #x61348599a8e188f7) #x9ecb7a66571e7708))
(constraint (= (f #xf1e8953ad1cb0f83) #x0e176ac52e34f07c))
(constraint (= (f #xc9d86d7906ab9211) #x36279286f9546dee))
(constraint (= (f #x1b13188d8cefb41f) #xfffffffffffffffe))
(constraint (= (f #x0b84620d628bf8af) #xfffffffffffffffe))
(constraint (= (f #xe09180a8ce09efd7) #xfffffffffffffffe))
(constraint (= (f #x6414916c20435751) #xfffffffffffffffe))
(constraint (= (f #x420cf1be214131b1) #xfffffffffffffffe))
(constraint (= (f #x0000000000000003) #xfffffffffffffffc))
(constraint (= (f #x0000000000000001) #xfffffffffffffffe))
(constraint (= (f #x0694368cb32d994a) #x0d286d19665b3294))
(constraint (= (f #x20f113eae1bde172) #x41e227d5c37bc2e4))
(constraint (= (f #x8a3f7a6257a1784e) #x147ef4c4af42f09c))
(constraint (= (f #x98d76659af79cea2) #x31aeccb35ef39d44))
(constraint (= (f #x0ea75c2693bf93f6) #x1d4eb84d277f27ec))
(constraint (= (f #x0d1a10582c95a8d6) #x1a3420b0592b51ac))
(constraint (= (f #xd020c08b2587c24e) #xa04181164b0f849c))
(constraint (= (f #x5181840fca617740) #xa303081f94c2ee80))
(constraint (= (f #x8aa24688352749d0) #x15448d106a4e93a0))
(constraint (= (f #xc0b545e817418652) #x816a8bd02e830ca4))
(constraint (= (f #x0000000000000000) #x0000000000000001))
(check-synth)
