experiments/eusolverbv/3/DirectTrainGenes/111000111000011111100110110111111101110001111/111_.out
(define-fun f ((x (BitVec 64))) (BitVec 64)
     (if0 (func32 x) (if0 (func30 #x0000000000000001 (func56 x)) (if0 (func30 #x0000000000000001 (shr4 x)) (func52 #x0000000000000000) (if0 (func30 #x0000000000000001 x) (func52 (func38 #x0000000000000000 x)) (func52 #x0000000000000000))) (if0 (func30 #x0000000000000001 x) (if0 (func30 #x0000000000000001 (func45 x)) (func52 #x0000000000000000) (func52 (func38 #x0000000000000000 x))) (func52 (func38 #x0000000000000000 x)))) (if0 (func56 x) #x0000000000000001 (func49 x #x0000000000000000))))
1.026833588257432
